NAME: tsp20-37
TYPE: TSP
DIMENSION: 20
EDGE_WEIGHT_TYPE: EUC_2D
NODE_COORD_SECTION
0 84 72
1 45 38
2 49 98
3 2 13
4 56 76
5 80 30
6 35 2
7 88 62
8 47 67
9 69 0
10 1 78
11 75 66
12 3 35
13 71 20
14 4 9
15 44 6
16 85 69
17 97 77
18 75 10
19 36 92
EOF